JulietBench/Juliet_Based_Patch_Bench/linux/CWE-189-Numeric-Errors/CVE_2015_4001_b1bb5b49373b61bf9d2c73a4d30058ba6f069e4c/Resultoz_hcd_get_desc_cnf_Snippet_patch2EQ.smt2
; benchmark generated from python API
(set-info :status unknown)
(declare-fun rsi () (_ BitVec 64))
(declare-fun rcx () (_ BitVec 64))
(declare-fun R () (_ BitVec 32))
(declare-fun rdx () (_ BitVec 64))
(declare-fun rdi () (_ BitVec 64))
(assert
 (let ((?x21 ((_ extract 15 0) rsi)))
 (let ((?x82 (concat (_ bv0 16) ?x21)))
 (let ((?x84 (bvmul (_ bv4294967295 32) ?x82)))
 (let ((?x11 ((_ extract 31 0) rcx)))
 (let ((?x79 (bvadd ?x11 ?x84)))
 (let (($x1633 (= R ?x79)))
 (let ((?x22 ((_ extract 15 0) rdx)))
 (let ((?x29 (concat (_ bv0 16) ?x22)))
 (let (($x80 (bvule ?x11 ?x29)))
 (let (($x984 (bvuge ?x11 ?x82)))
 (let ((?x16 ((_ extract 7 0) rdi)))
 (let ((?x91 (concat (_ bv0 24) ?x16)))
 (let (($x1227 (bvult ?x79 ?x91)))
 (let (($x1638 (and $x1227 $x984 $x80 $x1633)))
 (let (($x1640 (= R ?x11)))
 (let (($x903 (bvult ?x11 ?x82)))
 (let (($x887 (bvult ?x11 ?x91)))
 (let (($x1641 (and $x887 $x903 $x80 $x1640)))
 (let (($x1631 (= R ?x91)))
 (let (($x1319 (bvuge ?x79 ?x91)))
 (let (($x1628 (and $x1319 $x984 $x80 $x1631)))
 (let ((?x14 (bvadd ?x29 ?x84)))
 (let (($x1626 (= R ?x14)))
 (let (($x885 (bvugt ?x11 ?x29)))
 (let (($x1390 (bvuge ?x29 ?x82)))
 (let (($x1529 (bvult ?x14 ?x91)))
 (let (($x1647 (and $x1529 $x1390 $x885 $x1626)))
 (let (($x1408 (bvuge ?x11 ?x91)))
 (let (($x1644 (and $x1408 $x903 $x80 $x1631)))
 (let (($x1646 (= R ?x29)))
 (let (($x1322 (bvult ?x29 ?x82)))
 (let (($x1394 (bvult ?x29 ?x91)))
 (let (($x1643 (and $x1394 $x1322 $x885 $x1646)))
 (let (($x1593 (bvuge ?x14 ?x91)))
 (let (($x1645 (and $x1593 $x1390 $x885 $x1631)))
 (let (($x1629 (bvuge ?x29 ?x91)))
 (let (($x1648 (and $x1629 $x1322 $x885 $x1631)))
 (let (($x1639 (or $x1648 $x1645 $x1643 $x1644 $x1647 $x1628 $x1641 $x1638)))
 (let (($x31 (bvsle ?x11 ?x29)))
 (let (($x93 (bvslt ?x79 ?x91)))
 (let (($x1649 (and $x93 $x31 $x1633)))
 (let (($x742 (bvsge ?x79 ?x91)))
 (let (($x1630 (and $x742 $x31 $x1631)))
 (let (($x55 (bvsgt ?x11 ?x29)))
 (let (($x52 (bvslt ?x14 ?x91)))
 (let (($x1627 (and $x52 $x55 $x1626)))
 (let (($x878 (bvsge ?x14 ?x91)))
 (let (($x1632 (and $x878 $x55 $x1631)))
 (let (($x1650 (or $x1632 $x1627 $x1630 $x1649)))
 (and $x1650 $x1639)))))))))))))))))))))))))))))))))))))))))))))))))))
(check-sat)
